clingo version 5.6.2
Reading from ...etition/0055-graph_colouring-150-0.asp ...
Solving...
UNSATISFIABLE

Models       : 0
Calls        : 1
Time         : 151.878s (Solving: 151.64s 1st Model: 0.00s Unsat: 151.64s)
CPU Time     : 151.735s

Choices      : 3971021 
Conflicts    : 3661136  (Analyzed: 3661135)
Restarts     : 8189     (Average: 447.08 Last: 85379)
Problems     : 1        (Average Length: 0.00 Splits: 0)
Lemmas       : 3661135  (Deleted: 3570444)
  Binary     : 431      (Ratio:   0.01%)
  Ternary    : 2746     (Ratio:   0.08%)
  Conflict   : 3661135  (Average Length:   28.2 Ratio: 100.00%) 
  Loop       : 0        (Average Length:    0.0 Ratio:   0.00%) 
  Other      : 0        (Average Length:    0.0 Ratio:   0.00%) 
Backjumps    : 3661135  (Average:  1.07 Max:  11 Sum: 3919106)
  Executed   : 3661135  (Average:  1.07 Max:  11 Sum: 3919106 Ratio: 100.00%)
  Bounded    : 0        (Average:  0.00 Max:   0 Sum:      0 Ratio:   0.00%)

Rules        : 21632   
Atoms        : 3940    
Bodies       : 1480    
Equivalences : 2928     (Atom=Atom: 16 Body=Body: 727 Other: 2185)
Tight        : Yes
Variables    : 883      (Eliminated:    0 Frozen:    0)
Constraints  : 8692     (Binary:  90.0% Ternary:   0.0% Other:  10.0%)

